100 8
788 260
280 908
243 770
59 597
477 157
160 592
254 768
650 141
835 334
786 678
472 400
832 368
437 603
759 716
813 744
312 361
434 664
602 859
211 556
655 588
811 848
309 773
630 683
453 804
382 446
699 906
280 168
771 844
755 320
411 731
710 369
57 398
376 909
155 372
571 915
499 429
341 361
310 377
694 679
259 744
168 342
354 916
491 688
761 359
731 407
822 495
299 305
598 683
883 360
626 843
468 307
83 512
288 505
748 480
581 841
269 253
185 336
791 872
553 550
336 870
547 840
872 546
358 772
852 401
310 625
324 820
548 590
357 755
709 594
703 400
683 756
763 275
700 918
178 511
824 439
146 460
451 296
275 296
324 737
352 330
339 375
227 443
611 547
366 792
830 733
893 417
468 218
370 783
663 193
594 885
731 323
595 401
743 865
550 279
841 356
495 155
558 581
304 304
150 423
736 875
